
Gurobi 9.0.2 (win64) logging started Sun Dec 27 06:52:29 2020

Changed value of parameter logfile to result\SunCable-20201227T0415\scenario_2030_p20_cab0.log
   Prev:   Default: 
Gurobi Optimizer version 9.0.2 build v9.0.2rc0 (win64)
Optimize a model with 1243974 rows, 762167 columns and 3491689 nonzeros
Model fingerprint: 0x69085651
Coefficient statistics:
  Matrix range     [1e-07, 3e+05]
  Objective range  [1e+00, 1e+00]
  Bounds range     [0e+00, 0e+00]
  RHS range        [2e-05, 3e+08]
Warning: Model contains large matrix coefficient range
         Consider reformulating model or setting NumericFocus parameter
         to avoid numerical issues.

Concurrent LP optimizer: primal simplex, dual simplex, and barrier
Showing barrier log only...

Presolve removed 1077757 rows and 595936 columns
Presolve time: 2.61s
Presolved: 166217 rows, 280097 columns, 634800 nonzeros

Ordering time: 0.07s

Barrier statistics:
 Dense cols : 4
 AA' NZ     : 5.743e+05
 Factor NZ  : 2.973e+06 (roughly 200 MBytes of memory)
 Factor Ops : 6.580e+07 (less than 1 second per iteration)
 Threads    : 30

                  Objective                Residual
Iter       Primal          Dual         Primal    Dual     Compl     Time
   0  -2.03239146e+16 -1.07293821e+15  5.93e+06 2.66e+04  2.44e+12     3s
   1  -3.48406171e+15 -1.08556441e+15  1.01e+06 4.50e+06  5.67e+11     3s
   2  -1.22122922e+15 -1.02025400e+15  3.55e+05 1.27e+06  1.92e+11     4s
   3  -2.69558545e+14 -8.45435935e+14  7.90e+04 1.78e+05  4.08e+10     4s
   4  -8.26253483e+13 -5.48670559e+14  2.30e+04 5.37e+04  1.24e+10     4s
   5  -2.84087216e+13 -3.89266033e+14  7.50e+03 2.82e+04  4.86e+09     4s
   6  -1.09442292e+13 -2.72355158e+14  3.05e+03 1.41e+04  2.27e+09     5s
   7  -3.51242571e+12 -1.24121283e+14  1.03e+03 2.03e+03  6.03e+08     5s
   8   1.30539722e+11 -3.55836067e+13  2.20e+01 1.33e+02  7.38e+07     5s
   9   1.80855339e+11 -1.15208787e+12  5.80e-02 3.53e+00  2.56e+06     5s
  10   9.16273922e+10 -4.64745906e+11  1.64e-02 1.15e+00  1.03e+06     5s
  11   3.88501113e+10 -1.98096732e+11  4.17e-03 3.10e-01  4.32e+05     6s
  12   1.40914793e+10 -5.77909015e+10  9.02e-04 2.24e-08  1.29e+05     6s
  13   1.04336933e+10 -1.38499462e+10  5.42e-04 2.24e-08  4.35e+04     6s
  14   1.03302031e+10 -9.01127797e+09  5.11e-04 1.49e-08  3.47e+04     7s
  15   6.37292542e+09 -3.21893651e+08  1.35e-04 1.12e-08  1.20e+04     7s
  16   5.79952459e+09  2.07148394e+09  8.59e-05 7.45e-09  6.66e+03     7s
  17   5.39027065e+09  3.12947042e+09  5.09e-05 5.59e-09  4.04e+03     7s
  18   5.15385733e+09  4.26395720e+09  2.94e-05 3.73e-09  1.59e+03     7s
  19   5.02444742e+09  4.41908916e+09  1.80e-05 3.73e-09  1.08e+03     8s
  20   4.96115669e+09  4.65512380e+09  1.22e-05 1.86e-09  5.47e+02     8s
  21   4.94363542e+09  4.67293069e+09  1.04e-05 2.79e-09  4.84e+02     8s
  22   4.92353033e+09  4.74461220e+09  8.46e-06 2.79e-09  3.20e+02     8s
  23   4.90466752e+09  4.76376610e+09  6.50e-06 1.86e-09  2.52e+02     9s
  24   4.89424215e+09  4.78388087e+09  5.48e-06 1.86e-09  1.97e+02     9s
  25   4.88098747e+09  4.80073899e+09  3.94e-06 1.86e-09  1.43e+02     9s
  26   4.87004200e+09  4.81224198e+09  2.76e-06 1.86e-09  1.03e+02    10s
  27   4.86493526e+09  4.82125849e+09  2.24e-06 1.86e-09  7.80e+01    10s
  28   4.85938118e+09  4.82826873e+09  1.53e-06 1.86e-09  5.56e+01    10s
  29   4.85508193e+09  4.83363610e+09  9.93e-07 1.86e-09  3.83e+01    11s
  30   4.85248677e+09  4.83945606e+09  6.36e-07 1.86e-09  2.33e+01    11s
  31   4.85134442e+09  4.84317561e+09  4.78e-07 1.86e-09  1.46e+01    11s
  32   4.84977816e+09  4.84410635e+09  2.57e-07 1.86e-09  1.01e+01    11s
  33   4.84906756e+09  4.84534486e+09  1.53e-07 1.86e-09  6.65e+00    12s
  34   4.84857775e+09  4.84654239e+09  8.42e-08 1.86e-09  3.64e+00    12s
  35   4.84824007e+09  4.84713120e+09  1.22e-07 1.86e-09  1.98e+00    12s
  36   4.84803306e+09  4.84763555e+09  1.14e-07 1.86e-09  7.10e-01    12s
  37   4.84801294e+09  4.84777822e+09  1.04e-07 1.86e-09  4.19e-01    12s
  38   4.84799586e+09  4.84788226e+09  1.30e-07 1.86e-09  2.03e-01    13s
  39   4.84797249e+09  4.84794334e+09  7.71e-07 2.79e-09  5.21e-02    13s
  40   4.84796592e+09  4.84796305e+09  6.05e-08 2.79e-09  5.12e-03    13s
  41   4.84796537e+09  4.84796529e+09  4.69e-09 3.32e-09  1.45e-04    13s
  42   4.84796537e+09  4.84796530e+09  1.40e-03 2.79e-09  1.16e-04    14s

Barrier solved model in 42 iterations and 13.71 seconds
Optimal objective 4.84796537e+09

Crossover log...

   14819 DPushes remaining with DInf 0.0000000e+00                14s
     113 DPushes remaining with DInf 0.0000000e+00                15s
       0 DPushes remaining with DInf 0.0000000e+00                15s

  111476 PPushes remaining with PInf 2.3583545e-04                15s
   43032 PPushes remaining with PInf 2.8598638e-03                26s
       0 PPushes remaining with PInf 0.0000000e+00                29s

  Push phase complete: Pinf 0.0000000e+00, Dinf 4.8910733e+01     29s

Iteration    Objective       Primal Inf.    Dual Inf.      Time
  126296    4.8479653e+09   0.000000e+00   4.891073e+01     29s
  126307    4.8479653e+09   0.000000e+00   0.000000e+00     31s

Solved with barrier
Solved in 126307 iterations and 30.71 seconds
Optimal objective  4.847965329e+09
Warning: unscaled primal violation = 0.000867193 and residual = 0.000867193
